min: Y0 + Y1 + Y2 + Y3 + Y4 + Y5 + Y6 + Y7 + Y8 + Y9 + Y10 + Y11 + Y12 + Y13 + Y14 + Y15; 
Y0=1; 
Y1=1; 
Y2=1; 
Y3=1; 
Y4=1; 
Y5=1; 
Y6=1; 
Y14=1; 
Y7 >=  X0_1_7; 
Y7 >=  X0_2_7; 
Y7 >=  X0_3_7; 
Y7 >=  X1_1_7; 
Y7 >=  X1_2_7; 
Y7 >=  X1_3_7; 
Y7 >=  X2_1_7; 
Y7 >=  X2_2_7; 
Y7 >=  X2_3_7; 
Y7 >=  X3_1_7; 
Y7 >=  X3_2_7; 
Y7 >=  X3_3_7; 
Y7 >=  X4_1_7; 
Y7 >=  X4_2_7; 
Y7 >=  X4_3_7; 
Y7 >=  X5_1_7; 
Y7 >=  X5_2_7; 
Y7 >=  X5_3_7; 
Y7 >=  X6_1_7; 
Y7 >=  X6_2_7; 
Y7 >=  X6_3_7; 
Y7 >=  X7_1_7; 
Y7 >=  X7_2_7; 
Y7 >=  X7_3_7; 
Y7 >=  X8_1_7; 
Y7 >=  X8_2_7; 
Y7 >=  X8_3_7; 
Y7 >=  X9_1_7; 
Y7 >=  X9_2_7; 
Y7 >=  X9_3_7; 
Y7 >=  X10_1_7; 
Y7 >=  X10_2_7; 
Y7 >=  X10_3_7; 
Y7 >=  X11_1_7; 
Y7 >=  X11_2_7; 
Y7 >=  X11_3_7; 
Y8 >=  X0_1_8; 
Y8 >=  X0_2_8; 
Y8 >=  X0_3_8; 
Y8 >=  X1_1_8; 
Y8 >=  X1_2_8; 
Y8 >=  X1_3_8; 
Y8 >=  X2_1_8; 
Y8 >=  X2_2_8; 
Y8 >=  X2_3_8; 
Y8 >=  X3_1_8; 
Y8 >=  X3_2_8; 
Y8 >=  X3_3_8; 
Y8 >=  X4_1_8; 
Y8 >=  X4_2_8; 
Y8 >=  X4_3_8; 
Y8 >=  X5_1_8; 
Y8 >=  X5_2_8; 
Y8 >=  X5_3_8; 
Y8 >=  X6_1_8; 
Y8 >=  X6_2_8; 
Y8 >=  X6_3_8; 
Y8 >=  X7_1_8; 
Y8 >=  X7_2_8; 
Y8 >=  X7_3_8; 
Y8 >=  X8_1_8; 
Y8 >=  X8_2_8; 
Y8 >=  X8_3_8; 
Y8 >=  X9_1_8; 
Y8 >=  X9_2_8; 
Y8 >=  X9_3_8; 
Y8 >=  X10_1_8; 
Y8 >=  X10_2_8; 
Y8 >=  X10_3_8; 
Y8 >=  X11_1_8; 
Y8 >=  X11_2_8; 
Y8 >=  X11_3_8; 
Y9 >=  X0_1_9; 
Y9 >=  X0_2_9; 
Y9 >=  X0_3_9; 
Y9 >=  X1_1_9; 
Y9 >=  X1_2_9; 
Y9 >=  X1_3_9; 
Y9 >=  X2_1_9; 
Y9 >=  X2_2_9; 
Y9 >=  X2_3_9; 
Y9 >=  X3_1_9; 
Y9 >=  X3_2_9; 
Y9 >=  X3_3_9; 
Y9 >=  X4_1_9; 
Y9 >=  X4_2_9; 
Y9 >=  X4_3_9; 
Y9 >=  X5_1_9; 
Y9 >=  X5_2_9; 
Y9 >=  X5_3_9; 
Y9 >=  X6_1_9; 
Y9 >=  X6_2_9; 
Y9 >=  X6_3_9; 
Y9 >=  X7_1_9; 
Y9 >=  X7_2_9; 
Y9 >=  X7_3_9; 
Y9 >=  X8_1_9; 
Y9 >=  X8_2_9; 
Y9 >=  X8_3_9; 
Y9 >=  X9_1_9; 
Y9 >=  X9_2_9; 
Y9 >=  X9_3_9; 
Y9 >=  X10_1_9; 
Y9 >=  X10_2_9; 
Y9 >=  X10_3_9; 
Y9 >=  X11_1_9; 
Y9 >=  X11_2_9; 
Y9 >=  X11_3_9; 
Y10 >=  X0_1_10; 
Y10 >=  X0_2_10; 
Y10 >=  X0_3_10; 
Y10 >=  X1_1_10; 
Y10 >=  X1_2_10; 
Y10 >=  X1_3_10; 
Y10 >=  X2_1_10; 
Y10 >=  X2_2_10; 
Y10 >=  X2_3_10; 
Y10 >=  X3_1_10; 
Y10 >=  X3_2_10; 
Y10 >=  X3_3_10; 
Y10 >=  X4_1_10; 
Y10 >=  X4_2_10; 
Y10 >=  X4_3_10; 
Y10 >=  X5_1_10; 
Y10 >=  X5_2_10; 
Y10 >=  X5_3_10; 
Y10 >=  X6_1_10; 
Y10 >=  X6_2_10; 
Y10 >=  X6_3_10; 
Y10 >=  X7_1_10; 
Y10 >=  X7_2_10; 
Y10 >=  X7_3_10; 
Y10 >=  X8_1_10; 
Y10 >=  X8_2_10; 
Y10 >=  X8_3_10; 
Y10 >=  X9_1_10; 
Y10 >=  X9_2_10; 
Y10 >=  X9_3_10; 
Y10 >=  X10_1_10; 
Y10 >=  X10_2_10; 
Y10 >=  X10_3_10; 
Y10 >=  X11_1_10; 
Y10 >=  X11_2_10; 
Y10 >=  X11_3_10; 
Y11 >=  X0_1_11; 
Y11 >=  X0_2_11; 
Y11 >=  X0_3_11; 
Y11 >=  X1_1_11; 
Y11 >=  X1_2_11; 
Y11 >=  X1_3_11; 
Y11 >=  X2_1_11; 
Y11 >=  X2_2_11; 
Y11 >=  X2_3_11; 
Y11 >=  X3_1_11; 
Y11 >=  X3_2_11; 
Y11 >=  X3_3_11; 
Y11 >=  X4_1_11; 
Y11 >=  X4_2_11; 
Y11 >=  X4_3_11; 
Y11 >=  X5_1_11; 
Y11 >=  X5_2_11; 
Y11 >=  X5_3_11; 
Y11 >=  X6_1_11; 
Y11 >=  X6_2_11; 
Y11 >=  X6_3_11; 
Y11 >=  X7_1_11; 
Y11 >=  X7_2_11; 
Y11 >=  X7_3_11; 
Y11 >=  X8_1_11; 
Y11 >=  X8_2_11; 
Y11 >=  X8_3_11; 
Y11 >=  X9_1_11; 
Y11 >=  X9_2_11; 
Y11 >=  X9_3_11; 
Y11 >=  X10_1_11; 
Y11 >=  X10_2_11; 
Y11 >=  X10_3_11; 
Y11 >=  X11_1_11; 
Y11 >=  X11_2_11; 
Y11 >=  X11_3_11; 
Y12 >=  X0_1_12; 
Y12 >=  X0_2_12; 
Y12 >=  X0_3_12; 
Y12 >=  X1_1_12; 
Y12 >=  X1_2_12; 
Y12 >=  X1_3_12; 
Y12 >=  X2_1_12; 
Y12 >=  X2_2_12; 
Y12 >=  X2_3_12; 
Y12 >=  X3_1_12; 
Y12 >=  X3_2_12; 
Y12 >=  X3_3_12; 
Y12 >=  X4_1_12; 
Y12 >=  X4_2_12; 
Y12 >=  X4_3_12; 
Y12 >=  X5_1_12; 
Y12 >=  X5_2_12; 
Y12 >=  X5_3_12; 
Y12 >=  X6_1_12; 
Y12 >=  X6_2_12; 
Y12 >=  X6_3_12; 
Y12 >=  X7_1_12; 
Y12 >=  X7_2_12; 
Y12 >=  X7_3_12; 
Y12 >=  X8_1_12; 
Y12 >=  X8_2_12; 
Y12 >=  X8_3_12; 
Y12 >=  X9_1_12; 
Y12 >=  X9_2_12; 
Y12 >=  X9_3_12; 
Y12 >=  X10_1_12; 
Y12 >=  X10_2_12; 
Y12 >=  X10_3_12; 
Y12 >=  X11_1_12; 
Y12 >=  X11_2_12; 
Y12 >=  X11_3_12; 
Y13 >=  X0_1_13; 
Y13 >=  X0_2_13; 
Y13 >=  X0_3_13; 
Y13 >=  X1_1_13; 
Y13 >=  X1_2_13; 
Y13 >=  X1_3_13; 
Y13 >=  X2_1_13; 
Y13 >=  X2_2_13; 
Y13 >=  X2_3_13; 
Y13 >=  X3_1_13; 
Y13 >=  X3_2_13; 
Y13 >=  X3_3_13; 
Y13 >=  X4_1_13; 
Y13 >=  X4_2_13; 
Y13 >=  X4_3_13; 
Y13 >=  X5_1_13; 
Y13 >=  X5_2_13; 
Y13 >=  X5_3_13; 
Y13 >=  X6_1_13; 
Y13 >=  X6_2_13; 
Y13 >=  X6_3_13; 
Y13 >=  X7_1_13; 
Y13 >=  X7_2_13; 
Y13 >=  X7_3_13; 
Y13 >=  X8_1_13; 
Y13 >=  X8_2_13; 
Y13 >=  X8_3_13; 
Y13 >=  X9_1_13; 
Y13 >=  X9_2_13; 
Y13 >=  X9_3_13; 
Y13 >=  X10_1_13; 
Y13 >=  X10_2_13; 
Y13 >=  X10_3_13; 
Y13 >=  X11_1_13; 
Y13 >=  X11_2_13; 
Y13 >=  X11_3_13; 
Y15 >=  X0_1_15; 
Y15 >=  X0_2_15; 
Y15 >=  X0_3_15; 
Y15 >=  X1_1_15; 
Y15 >=  X1_2_15; 
Y15 >=  X1_3_15; 
Y15 >=  X2_1_15; 
Y15 >=  X2_2_15; 
Y15 >=  X2_3_15; 
Y15 >=  X3_1_15; 
Y15 >=  X3_2_15; 
Y15 >=  X3_3_15; 
Y15 >=  X4_1_15; 
Y15 >=  X4_2_15; 
Y15 >=  X4_3_15; 
Y15 >=  X5_1_15; 
Y15 >=  X5_2_15; 
Y15 >=  X5_3_15; 
Y15 >=  X6_1_15; 
Y15 >=  X6_2_15; 
Y15 >=  X6_3_15; 
Y15 >=  X7_1_15; 
Y15 >=  X7_2_15; 
Y15 >=  X7_3_15; 
Y15 >=  X8_1_15; 
Y15 >=  X8_2_15; 
Y15 >=  X8_3_15; 
Y15 >=  X9_1_15; 
Y15 >=  X9_2_15; 
Y15 >=  X9_3_15; 
Y15 >=  X10_1_15; 
Y15 >=  X10_2_15; 
Y15 >=  X10_3_15; 
Y15 >=  X11_1_15; 
Y15 >=  X11_2_15; 
Y15 >=  X11_3_15; 
Y0 <= 1; 
Y1 <= 1; 
Y2 <= 1; 
Y3 <= 1; 
Y4 <= 1; 
Y5 <= 1; 
Y6 <= 1; 
Y7 <= 1; 
Y8 <= 1; 
Y9 <= 1; 
Y10 <= 1; 
Y11 <= 1; 
Y12 <= 1; 
Y13 <= 1; 
Y14 <= 1; 
Y15 <= 1; 
X0_1_0 + X0_2_0 + X0_3_0 <= 1; 
X0_1_1 + X0_2_1 + X0_3_1 <= 1; 
X0_1_2 + X0_2_2 + X0_3_2 <= 1; 
X0_1_3 + X0_2_3 + X0_3_3 <= 1; 
X0_1_4 + X0_2_4 + X0_3_4 <= 1; 
X0_1_5 + X0_2_5 + X0_3_5 <= 1; 
X0_1_6 + X0_2_6 + X0_3_6 <= 1; 
X0_1_7 + X0_2_7 + X0_3_7 <= 1; 
X0_1_8 + X0_2_8 + X0_3_8 <= 1; 
X0_1_9 + X0_2_9 + X0_3_9 <= 1; 
X0_1_10 + X0_2_10 + X0_3_10 <= 1; 
X0_1_11 + X0_2_11 + X0_3_11 <= 1; 
X0_1_12 + X0_2_12 + X0_3_12 <= 1; 
X0_1_13 + X0_2_13 + X0_3_13 <= 1; 
X0_1_14 + X0_2_14 + X0_3_14 <= 1; 
X0_1_15 + X0_2_15 + X0_3_15 <= 1; 
X1_1_0 + X1_2_0 + X1_3_0 <= 1; 
X1_1_1 + X1_2_1 + X1_3_1 <= 1; 
X1_1_2 + X1_2_2 + X1_3_2 <= 1; 
X1_1_3 + X1_2_3 + X1_3_3 <= 1; 
X1_1_4 + X1_2_4 + X1_3_4 <= 1; 
X1_1_5 + X1_2_5 + X1_3_5 <= 1; 
X1_1_6 + X1_2_6 + X1_3_6 <= 1; 
X1_1_7 + X1_2_7 + X1_3_7 <= 1; 
X1_1_8 + X1_2_8 + X1_3_8 <= 1; 
X1_1_9 + X1_2_9 + X1_3_9 <= 1; 
X1_1_10 + X1_2_10 + X1_3_10 <= 1; 
X1_1_11 + X1_2_11 + X1_3_11 <= 1; 
X1_1_12 + X1_2_12 + X1_3_12 <= 1; 
X1_1_13 + X1_2_13 + X1_3_13 <= 1; 
X1_1_14 + X1_2_14 + X1_3_14 <= 1; 
X1_1_15 + X1_2_15 + X1_3_15 <= 1; 
X2_1_0 + X2_2_0 + X2_3_0 <= 1; 
X2_1_1 + X2_2_1 + X2_3_1 <= 1; 
X2_1_2 + X2_2_2 + X2_3_2 <= 1; 
X2_1_3 + X2_2_3 + X2_3_3 <= 1; 
X2_1_4 + X2_2_4 + X2_3_4 <= 1; 
X2_1_5 + X2_2_5 + X2_3_5 <= 1; 
X2_1_6 + X2_2_6 + X2_3_6 <= 1; 
X2_1_7 + X2_2_7 + X2_3_7 <= 1; 
X2_1_8 + X2_2_8 + X2_3_8 <= 1; 
X2_1_9 + X2_2_9 + X2_3_9 <= 1; 
X2_1_10 + X2_2_10 + X2_3_10 <= 1; 
X2_1_11 + X2_2_11 + X2_3_11 <= 1; 
X2_1_12 + X2_2_12 + X2_3_12 <= 1; 
X2_1_13 + X2_2_13 + X2_3_13 <= 1; 
X2_1_14 + X2_2_14 + X2_3_14 <= 1; 
X2_1_15 + X2_2_15 + X2_3_15 <= 1; 
X3_1_0 + X3_2_0 + X3_3_0 <= 1; 
X3_1_1 + X3_2_1 + X3_3_1 <= 1; 
X3_1_2 + X3_2_2 + X3_3_2 <= 1; 
X3_1_3 + X3_2_3 + X3_3_3 <= 1; 
X3_1_4 + X3_2_4 + X3_3_4 <= 1; 
X3_1_5 + X3_2_5 + X3_3_5 <= 1; 
X3_1_6 + X3_2_6 + X3_3_6 <= 1; 
X3_1_7 + X3_2_7 + X3_3_7 <= 1; 
X3_1_8 + X3_2_8 + X3_3_8 <= 1; 
X3_1_9 + X3_2_9 + X3_3_9 <= 1; 
X3_1_10 + X3_2_10 + X3_3_10 <= 1; 
X3_1_11 + X3_2_11 + X3_3_11 <= 1; 
X3_1_12 + X3_2_12 + X3_3_12 <= 1; 
X3_1_13 + X3_2_13 + X3_3_13 <= 1; 
X3_1_14 + X3_2_14 + X3_3_14 <= 1; 
X3_1_15 + X3_2_15 + X3_3_15 <= 1; 
X4_1_0 + X4_2_0 + X4_3_0 <= 1; 
X4_1_1 + X4_2_1 + X4_3_1 <= 1; 
X4_1_2 + X4_2_2 + X4_3_2 <= 1; 
X4_1_3 + X4_2_3 + X4_3_3 <= 1; 
X4_1_4 + X4_2_4 + X4_3_4 <= 1; 
X4_1_5 + X4_2_5 + X4_3_5 <= 1; 
X4_1_6 + X4_2_6 + X4_3_6 <= 1; 
X4_1_7 + X4_2_7 + X4_3_7 <= 1; 
X4_1_8 + X4_2_8 + X4_3_8 <= 1; 
X4_1_9 + X4_2_9 + X4_3_9 <= 1; 
X4_1_10 + X4_2_10 + X4_3_10 <= 1; 
X4_1_11 + X4_2_11 + X4_3_11 <= 1; 
X4_1_12 + X4_2_12 + X4_3_12 <= 1; 
X4_1_13 + X4_2_13 + X4_3_13 <= 1; 
X4_1_14 + X4_2_14 + X4_3_14 <= 1; 
X4_1_15 + X4_2_15 + X4_3_15 <= 1; 
X5_1_0 + X5_2_0 + X5_3_0 <= 1; 
X5_1_1 + X5_2_1 + X5_3_1 <= 1; 
X5_1_2 + X5_2_2 + X5_3_2 <= 1; 
X5_1_3 + X5_2_3 + X5_3_3 <= 1; 
X5_1_4 + X5_2_4 + X5_3_4 <= 1; 
X5_1_5 + X5_2_5 + X5_3_5 <= 1; 
X5_1_6 + X5_2_6 + X5_3_6 <= 1; 
X5_1_7 + X5_2_7 + X5_3_7 <= 1; 
X5_1_8 + X5_2_8 + X5_3_8 <= 1; 
X5_1_9 + X5_2_9 + X5_3_9 <= 1; 
X5_1_10 + X5_2_10 + X5_3_10 <= 1; 
X5_1_11 + X5_2_11 + X5_3_11 <= 1; 
X5_1_12 + X5_2_12 + X5_3_12 <= 1; 
X5_1_13 + X5_2_13 + X5_3_13 <= 1; 
X5_1_14 + X5_2_14 + X5_3_14 <= 1; 
X5_1_15 + X5_2_15 + X5_3_15 <= 1; 
X6_1_0 + X6_2_0 + X6_3_0 <= 1; 
X6_1_1 + X6_2_1 + X6_3_1 <= 1; 
X6_1_2 + X6_2_2 + X6_3_2 <= 1; 
X6_1_3 + X6_2_3 + X6_3_3 <= 1; 
X6_1_4 + X6_2_4 + X6_3_4 <= 1; 
X6_1_5 + X6_2_5 + X6_3_5 <= 1; 
X6_1_6 + X6_2_6 + X6_3_6 <= 1; 
X6_1_7 + X6_2_7 + X6_3_7 <= 1; 
X6_1_8 + X6_2_8 + X6_3_8 <= 1; 
X6_1_9 + X6_2_9 + X6_3_9 <= 1; 
X6_1_10 + X6_2_10 + X6_3_10 <= 1; 
X6_1_11 + X6_2_11 + X6_3_11 <= 1; 
X6_1_12 + X6_2_12 + X6_3_12 <= 1; 
X6_1_13 + X6_2_13 + X6_3_13 <= 1; 
X6_1_14 + X6_2_14 + X6_3_14 <= 1; 
X6_1_15 + X6_2_15 + X6_3_15 <= 1; 
X7_1_0 + X7_2_0 + X7_3_0 <= 1; 
X7_1_1 + X7_2_1 + X7_3_1 <= 1; 
X7_1_2 + X7_2_2 + X7_3_2 <= 1; 
X7_1_3 + X7_2_3 + X7_3_3 <= 1; 
X7_1_4 + X7_2_4 + X7_3_4 <= 1; 
X7_1_5 + X7_2_5 + X7_3_5 <= 1; 
X7_1_6 + X7_2_6 + X7_3_6 <= 1; 
X7_1_7 + X7_2_7 + X7_3_7 <= 1; 
X7_1_8 + X7_2_8 + X7_3_8 <= 1; 
X7_1_9 + X7_2_9 + X7_3_9 <= 1; 
X7_1_10 + X7_2_10 + X7_3_10 <= 1; 
X7_1_11 + X7_2_11 + X7_3_11 <= 1; 
X7_1_12 + X7_2_12 + X7_3_12 <= 1; 
X7_1_13 + X7_2_13 + X7_3_13 <= 1; 
X7_1_14 + X7_2_14 + X7_3_14 <= 1; 
X7_1_15 + X7_2_15 + X7_3_15 <= 1; 
X8_1_0 + X8_2_0 + X8_3_0 <= 1; 
X8_1_1 + X8_2_1 + X8_3_1 <= 1; 
X8_1_2 + X8_2_2 + X8_3_2 <= 1; 
X8_1_3 + X8_2_3 + X8_3_3 <= 1; 
X8_1_4 + X8_2_4 + X8_3_4 <= 1; 
X8_1_5 + X8_2_5 + X8_3_5 <= 1; 
X8_1_6 + X8_2_6 + X8_3_6 <= 1; 
X8_1_7 + X8_2_7 + X8_3_7 <= 1; 
X8_1_8 + X8_2_8 + X8_3_8 <= 1; 
X8_1_9 + X8_2_9 + X8_3_9 <= 1; 
X8_1_10 + X8_2_10 + X8_3_10 <= 1; 
X8_1_11 + X8_2_11 + X8_3_11 <= 1; 
X8_1_12 + X8_2_12 + X8_3_12 <= 1; 
X8_1_13 + X8_2_13 + X8_3_13 <= 1; 
X8_1_14 + X8_2_14 + X8_3_14 <= 1; 
X8_1_15 + X8_2_15 + X8_3_15 <= 1; 
X9_1_0 + X9_2_0 + X9_3_0 <= 1; 
X9_1_1 + X9_2_1 + X9_3_1 <= 1; 
X9_1_2 + X9_2_2 + X9_3_2 <= 1; 
X9_1_3 + X9_2_3 + X9_3_3 <= 1; 
X9_1_4 + X9_2_4 + X9_3_4 <= 1; 
X9_1_5 + X9_2_5 + X9_3_5 <= 1; 
X9_1_6 + X9_2_6 + X9_3_6 <= 1; 
X9_1_7 + X9_2_7 + X9_3_7 <= 1; 
X9_1_8 + X9_2_8 + X9_3_8 <= 1; 
X9_1_9 + X9_2_9 + X9_3_9 <= 1; 
X9_1_10 + X9_2_10 + X9_3_10 <= 1; 
X9_1_11 + X9_2_11 + X9_3_11 <= 1; 
X9_1_12 + X9_2_12 + X9_3_12 <= 1; 
X9_1_13 + X9_2_13 + X9_3_13 <= 1; 
X9_1_14 + X9_2_14 + X9_3_14 <= 1; 
X9_1_15 + X9_2_15 + X9_3_15 <= 1; 
X10_1_0 + X10_2_0 + X10_3_0 <= 1; 
X10_1_1 + X10_2_1 + X10_3_1 <= 1; 
X10_1_2 + X10_2_2 + X10_3_2 <= 1; 
X10_1_3 + X10_2_3 + X10_3_3 <= 1; 
X10_1_4 + X10_2_4 + X10_3_4 <= 1; 
X10_1_5 + X10_2_5 + X10_3_5 <= 1; 
X10_1_6 + X10_2_6 + X10_3_6 <= 1; 
X10_1_7 + X10_2_7 + X10_3_7 <= 1; 
X10_1_8 + X10_2_8 + X10_3_8 <= 1; 
X10_1_9 + X10_2_9 + X10_3_9 <= 1; 
X10_1_10 + X10_2_10 + X10_3_10 <= 1; 
X10_1_11 + X10_2_11 + X10_3_11 <= 1; 
X10_1_12 + X10_2_12 + X10_3_12 <= 1; 
X10_1_13 + X10_2_13 + X10_3_13 <= 1; 
X10_1_14 + X10_2_14 + X10_3_14 <= 1; 
X10_1_15 + X10_2_15 + X10_3_15 <= 1; 
X11_1_0 + X11_2_0 + X11_3_0 <= 1; 
X11_1_1 + X11_2_1 + X11_3_1 <= 1; 
X11_1_2 + X11_2_2 + X11_3_2 <= 1; 
X11_1_3 + X11_2_3 + X11_3_3 <= 1; 
X11_1_4 + X11_2_4 + X11_3_4 <= 1; 
X11_1_5 + X11_2_5 + X11_3_5 <= 1; 
X11_1_6 + X11_2_6 + X11_3_6 <= 1; 
X11_1_7 + X11_2_7 + X11_3_7 <= 1; 
X11_1_8 + X11_2_8 + X11_3_8 <= 1; 
X11_1_9 + X11_2_9 + X11_3_9 <= 1; 
X11_1_10 + X11_2_10 + X11_3_10 <= 1; 
X11_1_11 + X11_2_11 + X11_3_11 <= 1; 
X11_1_12 + X11_2_12 + X11_3_12 <= 1; 
X11_1_13 + X11_2_13 + X11_3_13 <= 1; 
X11_1_14 + X11_2_14 + X11_3_14 <= 1; 
X11_1_15 + X11_2_15 + X11_3_15 <= 1; 
X0_1_0 = 0; 
X0_1_1 = 0; 
X0_1_2 = 0; 
X0_1_4 = 0; 
X0_1_5 = 0; 
X0_1_6 = 0; 
X0_1_7 = 0; 
X0_1_8 = 0; 
X0_1_9 = 0; 
X0_1_10 = 0; 
X0_1_11 = 0; 
X0_1_12 = 0; 
X0_1_13 = 0; 
X0_1_14 = 0; 
X0_1_15 = 0; 
X0_2_2 = 0; 
X0_2_3 = 0; 
X0_2_4 = 0; 
X0_2_5 = 0; 
X0_2_6 = 0; 
X0_2_7 = 0; 
X0_2_8 = 0; 
X0_2_9 = 0; 
X0_2_10 = 0; 
X0_2_11 = 0; 
X0_2_12 = 0; 
X0_2_13 = 0; 
X0_2_14 = 0; 
X0_2_15 = 0; 
X0_3_0 = 0; 
X0_3_1 = 0; 
X0_3_2 = 0; 
X0_3_3 = 0; 
X1_1_0 = 0; 
X1_1_1 = 0; 
X1_1_2 = 0; 
X1_1_3 = 0; 
X1_2_0 = 0; 
X1_2_1 = 0; 
X1_2_2 = 0; 
X1_2_3 = 0; 
X1_3_0 = 0; 
X1_3_1 = 0; 
X1_3_2 = 0; 
X1_3_3 = 0; 
X2_1_0 = 0; 
X2_1_1 = 0; 
X2_1_2 = 0; 
X2_1_3 = 0; 
X2_1_4 = 0; 
X2_1_6 = 0; 
X2_1_7 = 0; 
X2_1_8 = 0; 
X2_1_9 = 0; 
X2_1_10 = 0; 
X2_1_11 = 0; 
X2_1_12 = 0; 
X2_1_13 = 0; 
X2_1_14 = 0; 
X2_1_15 = 0; 
X2_2_0 = 0; 
X2_2_1 = 0; 
X2_2_2 = 0; 
X2_2_3 = 0; 
X2_2_4 = 0; 
X2_2_5 = 0; 
X2_2_8 = 0; 
X2_2_9 = 0; 
X2_2_10 = 0; 
X2_2_11 = 0; 
X2_2_12 = 0; 
X2_2_13 = 0; 
X2_2_14 = 0; 
X2_2_15 = 0; 
X2_3_4 = 0; 
X2_3_5 = 0; 
X2_3_6 = 0; 
X2_3_7 = 0; 
X3_1_0 = 0; 
X3_1_1 = 0; 
X3_1_2 = 0; 
X3_1_3 = 0; 
X3_1_4 = 0; 
X3_1_5 = 0; 
X3_1_6 = 0; 
X3_1_8 = 0; 
X3_1_9 = 0; 
X3_1_10 = 0; 
X3_1_11 = 0; 
X3_1_12 = 0; 
X3_1_13 = 0; 
X3_1_14 = 0; 
X3_1_15 = 0; 
X3_2_4 = 0; 
X3_2_5 = 0; 
X3_2_6 = 0; 
X3_2_7 = 0; 
X3_3_4 = 0; 
X3_3_5 = 0; 
X3_3_6 = 0; 
X3_3_7 = 0; 
X4_1_2 = 0; 
X4_1_3 = 0; 
X4_1_4 = 0; 
X4_1_5 = 0; 
X4_1_6 = 0; 
X4_1_7 = 0; 
X4_1_8 = 0; 
X4_1_9 = 0; 
X4_1_10 = 0; 
X4_1_11 = 0; 
X4_1_12 = 0; 
X4_1_13 = 0; 
X4_1_14 = 0; 
X4_1_15 = 0; 
X4_2_0 = 0; 
X4_2_1 = 0; 
X4_2_2 = 0; 
X4_2_4 = 0; 
X4_2_5 = 0; 
X4_2_6 = 0; 
X4_2_7 = 0; 
X4_2_8 = 0; 
X4_2_9 = 0; 
X4_2_10 = 0; 
X4_2_11 = 0; 
X4_2_12 = 0; 
X4_2_13 = 0; 
X4_2_14 = 0; 
X4_2_15 = 0; 
X4_3_0 = 0; 
X4_3_1 = 0; 
X4_3_2 = 0; 
X4_3_3 = 0; 
X5_1_0 = 0; 
X5_1_1 = 0; 
X5_1_2 = 0; 
X5_1_3 = 0; 
X5_1_4 = 0; 
X5_1_6 = 0; 
X5_1_7 = 0; 
X5_1_8 = 0; 
X5_1_9 = 0; 
X5_1_10 = 0; 
X5_1_11 = 0; 
X5_1_12 = 0; 
X5_1_13 = 0; 
X5_1_14 = 0; 
X5_1_15 = 0; 
X5_2_4 = 0; 
X5_2_5 = 0; 
X5_2_6 = 0; 
X5_2_7 = 0; 
X5_3_0 = 0; 
X5_3_1 = 0; 
X5_3_2 = 0; 
X5_3_3 = 0; 
X5_3_4 = 0; 
X5_3_5 = 0; 
X5_3_8 = 0; 
X5_3_9 = 0; 
X5_3_10 = 0; 
X5_3_11 = 0; 
X5_3_12 = 0; 
X5_3_13 = 0; 
X5_3_14 = 0; 
X5_3_15 = 0; 
X6_1_1 = 0; 
X6_1_2 = 0; 
X6_1_3 = 0; 
X6_1_4 = 0; 
X6_1_5 = 0; 
X6_1_6 = 0; 
X6_1_7 = 0; 
X6_1_8 = 0; 
X6_1_9 = 0; 
X6_1_10 = 0; 
X6_1_11 = 0; 
X6_1_12 = 0; 
X6_1_13 = 0; 
X6_1_14 = 0; 
X6_1_15 = 0; 
X6_2_0 = 0; 
X6_2_1 = 0; 
X6_2_2 = 0; 
X6_2_3 = 0; 
X6_3_0 = 0; 
X6_3_1 = 0; 
X6_3_2 = 0; 
X6_3_3 = 0; 
X7_1_0 = 0; 
X7_1_1 = 0; 
X7_1_2 = 0; 
X7_1_3 = 0; 
X7_1_4 = 0; 
X7_1_5 = 0; 
X7_1_6 = 0; 
X7_1_7 = 0; 
X7_1_8 = 0; 
X7_1_9 = 0; 
X7_1_10 = 0; 
X7_1_11 = 0; 
X7_1_12 = 0; 
X7_1_13 = 0; 
X7_1_14 = 0; 
X7_2_0 = 0; 
X7_2_1 = 0; 
X7_2_2 = 0; 
X7_2_3 = 0; 
X7_2_4 = 0; 
X7_2_5 = 0; 
X7_2_6 = 0; 
X7_2_7 = 0; 
X7_2_8 = 0; 
X7_2_9 = 0; 
X7_2_10 = 0; 
X7_2_11 = 0; 
X7_2_14 = 0; 
X7_2_15 = 0; 
X7_3_0 = 0; 
X7_3_1 = 0; 
X7_3_2 = 0; 
X7_3_3 = 0; 
X7_3_4 = 0; 
X7_3_5 = 0; 
X7_3_6 = 0; 
X7_3_7 = 0; 
X7_3_8 = 0; 
X7_3_9 = 0; 
X7_3_10 = 0; 
X7_3_11 = 0; 
X7_3_14 = 0; 
X7_3_15 = 0; 
X8_1_0 = 0; 
X8_1_1 = 0; 
X8_1_2 = 0; 
X8_1_3 = 0; 
X8_1_4 = 0; 
X8_1_5 = 0; 
X8_1_8 = 0; 
X8_1_9 = 0; 
X8_1_10 = 0; 
X8_1_11 = 0; 
X8_1_12 = 0; 
X8_1_13 = 0; 
X8_1_14 = 0; 
X8_1_15 = 0; 
X8_2_0 = 0; 
X8_2_1 = 0; 
X8_2_2 = 0; 
X8_2_3 = 0; 
X8_2_4 = 0; 
X8_2_5 = 0; 
X8_2_8 = 0; 
X8_2_9 = 0; 
X8_2_10 = 0; 
X8_2_11 = 0; 
X8_2_12 = 0; 
X8_2_13 = 0; 
X8_2_14 = 0; 
X8_2_15 = 0; 
X8_3_0 = 0; 
X8_3_1 = 0; 
X8_3_2 = 0; 
X8_3_3 = 0; 
X8_3_5 = 0; 
X8_3_6 = 0; 
X8_3_7 = 0; 
X8_3_8 = 0; 
X8_3_9 = 0; 
X8_3_10 = 0; 
X8_3_11 = 0; 
X8_3_12 = 0; 
X8_3_13 = 0; 
X8_3_14 = 0; 
X8_3_15 = 0; 
X9_1_0 = 0; 
X9_1_1 = 0; 
X9_1_2 = 0; 
X9_1_3 = 0; 
X9_2_0 = 0; 
X9_2_1 = 0; 
X9_2_2 = 0; 
X9_2_3 = 0; 
X9_3_0 = 0; 
X9_3_1 = 0; 
X9_3_2 = 0; 
X9_3_3 = 0; 
X10_1_0 = 0; 
X10_1_2 = 0; 
X10_1_3 = 0; 
X10_1_4 = 0; 
X10_1_5 = 0; 
X10_1_6 = 0; 
X10_1_7 = 0; 
X10_1_8 = 0; 
X10_1_9 = 0; 
X10_1_10 = 0; 
X10_1_11 = 0; 
X10_1_12 = 0; 
X10_1_13 = 0; 
X10_1_14 = 0; 
X10_1_15 = 0; 
X10_2_0 = 0; 
X10_2_1 = 0; 
X10_2_2 = 0; 
X10_2_3 = 0; 
X10_3_0 = 0; 
X10_3_1 = 0; 
X10_3_2 = 0; 
X10_3_3 = 0; 
X11_1_0 = 0; 
X11_1_1 = 0; 
X11_1_2 = 0; 
X11_1_3 = 0; 
X11_1_4 = 0; 
X11_1_5 = 0; 
X11_1_6 = 0; 
X11_1_7 = 0; 
X11_1_8 = 0; 
X11_1_9 = 0; 
X11_1_10 = 0; 
X11_1_11 = 0; 
X11_1_14 = 0; 
X11_1_15 = 0; 
X11_2_0 = 0; 
X11_2_1 = 0; 
X11_2_2 = 0; 
X11_2_3 = 0; 
X11_2_4 = 0; 
X11_2_5 = 0; 
X11_2_6 = 0; 
X11_2_7 = 0; 
X11_2_8 = 0; 
X11_2_9 = 0; 
X11_2_10 = 0; 
X11_2_11 = 0; 
X11_2_14 = 0; 
X11_2_15 = 0; 
X11_3_0 = 0; 
X11_3_1 = 0; 
X11_3_2 = 0; 
X11_3_3 = 0; 
X11_3_4 = 0; 
X11_3_5 = 0; 
X11_3_6 = 0; 
X11_3_7 = 0; 
X11_3_8 = 0; 
X11_3_9 = 0; 
X11_3_10 = 0; 
X11_3_11 = 0; 
X11_3_12 = 0; 
X11_3_13 = 0; 
X11_3_14 = 0; 
X0_1_0 + X0_1_1 + X0_1_2 + X0_1_3 + X0_1_4 + X0_1_5 + X0_1_6 + X0_1_7 + X0_1_8 + X0_1_9 + X0_1_10 + X0_1_11 + X0_1_12 + X0_1_13 + X0_1_14 + X0_1_15 = 1; 
X0_2_0 + X0_2_1 + X0_2_2 + X0_2_3 + X0_2_4 + X0_2_5 + X0_2_6 + X0_2_7 + X0_2_8 + X0_2_9 + X0_2_10 + X0_2_11 + X0_2_12 + X0_2_13 + X0_2_14 + X0_2_15 = 1; 
X0_3_0 + X0_3_1 + X0_3_2 + X0_3_3 + X0_3_4 + X0_3_5 + X0_3_6 + X0_3_7 + X0_3_8 + X0_3_9 + X0_3_10 + X0_3_11 + X0_3_12 + X0_3_13 + X0_3_14 + X0_3_15 = 1; 
X1_1_0 + X1_1_1 + X1_1_2 + X1_1_3 + X1_1_4 + X1_1_5 + X1_1_6 + X1_1_7 + X1_1_8 + X1_1_9 + X1_1_10 + X1_1_11 + X1_1_12 + X1_1_13 + X1_1_14 + X1_1_15 = 1; 
X1_2_0 + X1_2_1 + X1_2_2 + X1_2_3 + X1_2_4 + X1_2_5 + X1_2_6 + X1_2_7 + X1_2_8 + X1_2_9 + X1_2_10 + X1_2_11 + X1_2_12 + X1_2_13 + X1_2_14 + X1_2_15 = 1; 
X1_3_0 + X1_3_1 + X1_3_2 + X1_3_3 + X1_3_4 + X1_3_5 + X1_3_6 + X1_3_7 + X1_3_8 + X1_3_9 + X1_3_10 + X1_3_11 + X1_3_12 + X1_3_13 + X1_3_14 + X1_3_15 = 1; 
X2_1_0 + X2_1_1 + X2_1_2 + X2_1_3 + X2_1_4 + X2_1_5 + X2_1_6 + X2_1_7 + X2_1_8 + X2_1_9 + X2_1_10 + X2_1_11 + X2_1_12 + X2_1_13 + X2_1_14 + X2_1_15 = 1; 
X2_2_0 + X2_2_1 + X2_2_2 + X2_2_3 + X2_2_4 + X2_2_5 + X2_2_6 + X2_2_7 + X2_2_8 + X2_2_9 + X2_2_10 + X2_2_11 + X2_2_12 + X2_2_13 + X2_2_14 + X2_2_15 = 1; 
X2_3_0 + X2_3_1 + X2_3_2 + X2_3_3 + X2_3_4 + X2_3_5 + X2_3_6 + X2_3_7 + X2_3_8 + X2_3_9 + X2_3_10 + X2_3_11 + X2_3_12 + X2_3_13 + X2_3_14 + X2_3_15 = 1; 
X3_1_0 + X3_1_1 + X3_1_2 + X3_1_3 + X3_1_4 + X3_1_5 + X3_1_6 + X3_1_7 + X3_1_8 + X3_1_9 + X3_1_10 + X3_1_11 + X3_1_12 + X3_1_13 + X3_1_14 + X3_1_15 = 1; 
X3_2_0 + X3_2_1 + X3_2_2 + X3_2_3 + X3_2_4 + X3_2_5 + X3_2_6 + X3_2_7 + X3_2_8 + X3_2_9 + X3_2_10 + X3_2_11 + X3_2_12 + X3_2_13 + X3_2_14 + X3_2_15 = 1; 
X3_3_0 + X3_3_1 + X3_3_2 + X3_3_3 + X3_3_4 + X3_3_5 + X3_3_6 + X3_3_7 + X3_3_8 + X3_3_9 + X3_3_10 + X3_3_11 + X3_3_12 + X3_3_13 + X3_3_14 + X3_3_15 = 1; 
X4_1_0 + X4_1_1 + X4_1_2 + X4_1_3 + X4_1_4 + X4_1_5 + X4_1_6 + X4_1_7 + X4_1_8 + X4_1_9 + X4_1_10 + X4_1_11 + X4_1_12 + X4_1_13 + X4_1_14 + X4_1_15 = 1; 
X4_2_0 + X4_2_1 + X4_2_2 + X4_2_3 + X4_2_4 + X4_2_5 + X4_2_6 + X4_2_7 + X4_2_8 + X4_2_9 + X4_2_10 + X4_2_11 + X4_2_12 + X4_2_13 + X4_2_14 + X4_2_15 = 1; 
X4_3_0 + X4_3_1 + X4_3_2 + X4_3_3 + X4_3_4 + X4_3_5 + X4_3_6 + X4_3_7 + X4_3_8 + X4_3_9 + X4_3_10 + X4_3_11 + X4_3_12 + X4_3_13 + X4_3_14 + X4_3_15 = 1; 
X5_1_0 + X5_1_1 + X5_1_2 + X5_1_3 + X5_1_4 + X5_1_5 + X5_1_6 + X5_1_7 + X5_1_8 + X5_1_9 + X5_1_10 + X5_1_11 + X5_1_12 + X5_1_13 + X5_1_14 + X5_1_15 = 1; 
X5_2_0 + X5_2_1 + X5_2_2 + X5_2_3 + X5_2_4 + X5_2_5 + X5_2_6 + X5_2_7 + X5_2_8 + X5_2_9 + X5_2_10 + X5_2_11 + X5_2_12 + X5_2_13 + X5_2_14 + X5_2_15 = 1; 
X5_3_0 + X5_3_1 + X5_3_2 + X5_3_3 + X5_3_4 + X5_3_5 + X5_3_6 + X5_3_7 + X5_3_8 + X5_3_9 + X5_3_10 + X5_3_11 + X5_3_12 + X5_3_13 + X5_3_14 + X5_3_15 = 1; 
X6_1_0 + X6_1_1 + X6_1_2 + X6_1_3 + X6_1_4 + X6_1_5 + X6_1_6 + X6_1_7 + X6_1_8 + X6_1_9 + X6_1_10 + X6_1_11 + X6_1_12 + X6_1_13 + X6_1_14 + X6_1_15 = 1; 
X6_2_0 + X6_2_1 + X6_2_2 + X6_2_3 + X6_2_4 + X6_2_5 + X6_2_6 + X6_2_7 + X6_2_8 + X6_2_9 + X6_2_10 + X6_2_11 + X6_2_12 + X6_2_13 + X6_2_14 + X6_2_15 = 1; 
X6_3_0 + X6_3_1 + X6_3_2 + X6_3_3 + X6_3_4 + X6_3_5 + X6_3_6 + X6_3_7 + X6_3_8 + X6_3_9 + X6_3_10 + X6_3_11 + X6_3_12 + X6_3_13 + X6_3_14 + X6_3_15 = 1; 
X7_1_0 + X7_1_1 + X7_1_2 + X7_1_3 + X7_1_4 + X7_1_5 + X7_1_6 + X7_1_7 + X7_1_8 + X7_1_9 + X7_1_10 + X7_1_11 + X7_1_12 + X7_1_13 + X7_1_14 + X7_1_15 = 1; 
X7_2_0 + X7_2_1 + X7_2_2 + X7_2_3 + X7_2_4 + X7_2_5 + X7_2_6 + X7_2_7 + X7_2_8 + X7_2_9 + X7_2_10 + X7_2_11 + X7_2_12 + X7_2_13 + X7_2_14 + X7_2_15 = 1; 
X7_3_0 + X7_3_1 + X7_3_2 + X7_3_3 + X7_3_4 + X7_3_5 + X7_3_6 + X7_3_7 + X7_3_8 + X7_3_9 + X7_3_10 + X7_3_11 + X7_3_12 + X7_3_13 + X7_3_14 + X7_3_15 = 1; 
X8_1_0 + X8_1_1 + X8_1_2 + X8_1_3 + X8_1_4 + X8_1_5 + X8_1_6 + X8_1_7 + X8_1_8 + X8_1_9 + X8_1_10 + X8_1_11 + X8_1_12 + X8_1_13 + X8_1_14 + X8_1_15 = 1; 
X8_2_0 + X8_2_1 + X8_2_2 + X8_2_3 + X8_2_4 + X8_2_5 + X8_2_6 + X8_2_7 + X8_2_8 + X8_2_9 + X8_2_10 + X8_2_11 + X8_2_12 + X8_2_13 + X8_2_14 + X8_2_15 = 1; 
X8_3_0 + X8_3_1 + X8_3_2 + X8_3_3 + X8_3_4 + X8_3_5 + X8_3_6 + X8_3_7 + X8_3_8 + X8_3_9 + X8_3_10 + X8_3_11 + X8_3_12 + X8_3_13 + X8_3_14 + X8_3_15 = 1; 
X9_1_0 + X9_1_1 + X9_1_2 + X9_1_3 + X9_1_4 + X9_1_5 + X9_1_6 + X9_1_7 + X9_1_8 + X9_1_9 + X9_1_10 + X9_1_11 + X9_1_12 + X9_1_13 + X9_1_14 + X9_1_15 = 1; 
X9_2_0 + X9_2_1 + X9_2_2 + X9_2_3 + X9_2_4 + X9_2_5 + X9_2_6 + X9_2_7 + X9_2_8 + X9_2_9 + X9_2_10 + X9_2_11 + X9_2_12 + X9_2_13 + X9_2_14 + X9_2_15 = 1; 
X9_3_0 + X9_3_1 + X9_3_2 + X9_3_3 + X9_3_4 + X9_3_5 + X9_3_6 + X9_3_7 + X9_3_8 + X9_3_9 + X9_3_10 + X9_3_11 + X9_3_12 + X9_3_13 + X9_3_14 + X9_3_15 = 1; 
X10_1_0 + X10_1_1 + X10_1_2 + X10_1_3 + X10_1_4 + X10_1_5 + X10_1_6 + X10_1_7 + X10_1_8 + X10_1_9 + X10_1_10 + X10_1_11 + X10_1_12 + X10_1_13 + X10_1_14 + X10_1_15 = 1; 
X10_2_0 + X10_2_1 + X10_2_2 + X10_2_3 + X10_2_4 + X10_2_5 + X10_2_6 + X10_2_7 + X10_2_8 + X10_2_9 + X10_2_10 + X10_2_11 + X10_2_12 + X10_2_13 + X10_2_14 + X10_2_15 = 1; 
X10_3_0 + X10_3_1 + X10_3_2 + X10_3_3 + X10_3_4 + X10_3_5 + X10_3_6 + X10_3_7 + X10_3_8 + X10_3_9 + X10_3_10 + X10_3_11 + X10_3_12 + X10_3_13 + X10_3_14 + X10_3_15 = 1; 
X11_1_0 + X11_1_1 + X11_1_2 + X11_1_3 + X11_1_4 + X11_1_5 + X11_1_6 + X11_1_7 + X11_1_8 + X11_1_9 + X11_1_10 + X11_1_11 + X11_1_12 + X11_1_13 + X11_1_14 + X11_1_15 = 1; 
X11_2_0 + X11_2_1 + X11_2_2 + X11_2_3 + X11_2_4 + X11_2_5 + X11_2_6 + X11_2_7 + X11_2_8 + X11_2_9 + X11_2_10 + X11_2_11 + X11_2_12 + X11_2_13 + X11_2_14 + X11_2_15 = 1; 
X11_3_0 + X11_3_1 + X11_3_2 + X11_3_3 + X11_3_4 + X11_3_5 + X11_3_6 + X11_3_7 + X11_3_8 + X11_3_9 + X11_3_10 + X11_3_11 + X11_3_12 + X11_3_13 + X11_3_14 + X11_3_15 = 1; 
Y0 + Y0>=  X0_1_0 +  X0_2_0 +  X0_3_0 +  X1_1_0 +  X1_2_0 +  X1_3_0 +  X2_1_0 +  X2_2_0 +  X2_3_0 +  X3_1_0 +  X3_2_0 +  X3_3_0 +  X4_1_0 +  X4_2_0 +  X4_3_0 +  X5_1_0 +  X5_2_0 +  X5_3_0 +  X6_1_0 +  X6_2_0 +  X6_3_0 +  X7_1_0 +  X7_2_0 +  X7_3_0 +  X8_1_0 +  X8_2_0 +  X8_3_0 +  X9_1_0 +  X9_2_0 +  X9_3_0 +  X10_1_0 +  X10_2_0 +  X10_3_0 +  X11_1_0 +  X11_2_0 +  X11_3_0; 
Y1 + Y1>=  X0_1_1 +  X0_2_1 +  X0_3_1 +  X1_1_1 +  X1_2_1 +  X1_3_1 +  X2_1_1 +  X2_2_1 +  X2_3_1 +  X3_1_1 +  X3_2_1 +  X3_3_1 +  X4_1_1 +  X4_2_1 +  X4_3_1 +  X5_1_1 +  X5_2_1 +  X5_3_1 +  X6_1_1 +  X6_2_1 +  X6_3_1 +  X7_1_1 +  X7_2_1 +  X7_3_1 +  X8_1_1 +  X8_2_1 +  X8_3_1 +  X9_1_1 +  X9_2_1 +  X9_3_1 +  X10_1_1 +  X10_2_1 +  X10_3_1 +  X11_1_1 +  X11_2_1 +  X11_3_1; 
Y2 - Y2>=  X0_1_2 +  X0_2_2 +  X0_3_2 +  X1_1_2 +  X1_2_2 +  X1_3_2 +  X2_1_2 +  X2_2_2 +  X2_3_2 +  X3_1_2 +  X3_2_2 +  X3_3_2 +  X4_1_2 +  X4_2_2 +  X4_3_2 +  X5_1_2 +  X5_2_2 +  X5_3_2 +  X6_1_2 +  X6_2_2 +  X6_3_2 +  X7_1_2 +  X7_2_2 +  X7_3_2 +  X8_1_2 +  X8_2_2 +  X8_3_2 +  X9_1_2 +  X9_2_2 +  X9_3_2 +  X10_1_2 +  X10_2_2 +  X10_3_2 +  X11_1_2 +  X11_2_2 +  X11_3_2; 
Y3 + Y3>=  X0_1_3 +  X0_2_3 +  X0_3_3 +  X1_1_3 +  X1_2_3 +  X1_3_3 +  X2_1_3 +  X2_2_3 +  X2_3_3 +  X3_1_3 +  X3_2_3 +  X3_3_3 +  X4_1_3 +  X4_2_3 +  X4_3_3 +  X5_1_3 +  X5_2_3 +  X5_3_3 +  X6_1_3 +  X6_2_3 +  X6_3_3 +  X7_1_3 +  X7_2_3 +  X7_3_3 +  X8_1_3 +  X8_2_3 +  X8_3_3 +  X9_1_3 +  X9_2_3 +  X9_3_3 +  X10_1_3 +  X10_2_3 +  X10_3_3 +  X11_1_3 +  X11_2_3 +  X11_3_3; 
Y4>=  X0_1_4 +  X0_2_4 +  X0_3_4 +  X1_1_4 +  X1_2_4 +  X1_3_4 +  X2_1_4 +  X2_2_4 +  X2_3_4 +  X3_1_4 +  X3_2_4 +  X3_3_4 +  X4_1_4 +  X4_2_4 +  X4_3_4 +  X5_1_4 +  X5_2_4 +  X5_3_4 +  X6_1_4 +  X6_2_4 +  X6_3_4 +  X7_1_4 +  X7_2_4 +  X7_3_4 +  X8_1_4 +  X8_2_4 +  X8_3_4 +  X9_1_4 +  X9_2_4 +  X9_3_4 +  X10_1_4 +  X10_2_4 +  X10_3_4 +  X11_1_4 +  X11_2_4 +  X11_3_4; 
Y5 + Y5>=  X0_1_5 +  X0_2_5 +  X0_3_5 +  X1_1_5 +  X1_2_5 +  X1_3_5 +  X2_1_5 +  X2_2_5 +  X2_3_5 +  X3_1_5 +  X3_2_5 +  X3_3_5 +  X4_1_5 +  X4_2_5 +  X4_3_5 +  X5_1_5 +  X5_2_5 +  X5_3_5 +  X6_1_5 +  X6_2_5 +  X6_3_5 +  X7_1_5 +  X7_2_5 +  X7_3_5 +  X8_1_5 +  X8_2_5 +  X8_3_5 +  X9_1_5 +  X9_2_5 +  X9_3_5 +  X10_1_5 +  X10_2_5 +  X10_3_5 +  X11_1_5 +  X11_2_5 +  X11_3_5; 
Y6 + Y6>=  X0_1_6 +  X0_2_6 +  X0_3_6 +  X1_1_6 +  X1_2_6 +  X1_3_6 +  X2_1_6 +  X2_2_6 +  X2_3_6 +  X3_1_6 +  X3_2_6 +  X3_3_6 +  X4_1_6 +  X4_2_6 +  X4_3_6 +  X5_1_6 +  X5_2_6 +  X5_3_6 +  X6_1_6 +  X6_2_6 +  X6_3_6 +  X7_1_6 +  X7_2_6 +  X7_3_6 +  X8_1_6 +  X8_2_6 +  X8_3_6 +  X9_1_6 +  X9_2_6 +  X9_3_6 +  X10_1_6 +  X10_2_6 +  X10_3_6 +  X11_1_6 +  X11_2_6 +  X11_3_6; 
Y7 + Y7 + Y7>=  X0_1_7 +  X0_2_7 +  X0_3_7 +  X1_1_7 +  X1_2_7 +  X1_3_7 +  X2_1_7 +  X2_2_7 +  X2_3_7 +  X3_1_7 +  X3_2_7 +  X3_3_7 +  X4_1_7 +  X4_2_7 +  X4_3_7 +  X5_1_7 +  X5_2_7 +  X5_3_7 +  X6_1_7 +  X6_2_7 +  X6_3_7 +  X7_1_7 +  X7_2_7 +  X7_3_7 +  X8_1_7 +  X8_2_7 +  X8_3_7 +  X9_1_7 +  X9_2_7 +  X9_3_7 +  X10_1_7 +  X10_2_7 +  X10_3_7 +  X11_1_7 +  X11_2_7 +  X11_3_7; 
Y8 + Y8 + Y8>=  X0_1_8 +  X0_2_8 +  X0_3_8 +  X1_1_8 +  X1_2_8 +  X1_3_8 +  X2_1_8 +  X2_2_8 +  X2_3_8 +  X3_1_8 +  X3_2_8 +  X3_3_8 +  X4_1_8 +  X4_2_8 +  X4_3_8 +  X5_1_8 +  X5_2_8 +  X5_3_8 +  X6_1_8 +  X6_2_8 +  X6_3_8 +  X7_1_8 +  X7_2_8 +  X7_3_8 +  X8_1_8 +  X8_2_8 +  X8_3_8 +  X9_1_8 +  X9_2_8 +  X9_3_8 +  X10_1_8 +  X10_2_8 +  X10_3_8 +  X11_1_8 +  X11_2_8 +  X11_3_8; 
Y9 + Y9 + Y9>=  X0_1_9 +  X0_2_9 +  X0_3_9 +  X1_1_9 +  X1_2_9 +  X1_3_9 +  X2_1_9 +  X2_2_9 +  X2_3_9 +  X3_1_9 +  X3_2_9 +  X3_3_9 +  X4_1_9 +  X4_2_9 +  X4_3_9 +  X5_1_9 +  X5_2_9 +  X5_3_9 +  X6_1_9 +  X6_2_9 +  X6_3_9 +  X7_1_9 +  X7_2_9 +  X7_3_9 +  X8_1_9 +  X8_2_9 +  X8_3_9 +  X9_1_9 +  X9_2_9 +  X9_3_9 +  X10_1_9 +  X10_2_9 +  X10_3_9 +  X11_1_9 +  X11_2_9 +  X11_3_9; 
Y10 + Y10 + Y10>=  X0_1_10 +  X0_2_10 +  X0_3_10 +  X1_1_10 +  X1_2_10 +  X1_3_10 +  X2_1_10 +  X2_2_10 +  X2_3_10 +  X3_1_10 +  X3_2_10 +  X3_3_10 +  X4_1_10 +  X4_2_10 +  X4_3_10 +  X5_1_10 +  X5_2_10 +  X5_3_10 +  X6_1_10 +  X6_2_10 +  X6_3_10 +  X7_1_10 +  X7_2_10 +  X7_3_10 +  X8_1_10 +  X8_2_10 +  X8_3_10 +  X9_1_10 +  X9_2_10 +  X9_3_10 +  X10_1_10 +  X10_2_10 +  X10_3_10 +  X11_1_10 +  X11_2_10 +  X11_3_10; 
Y11 + Y11 + Y11>=  X0_1_11 +  X0_2_11 +  X0_3_11 +  X1_1_11 +  X1_2_11 +  X1_3_11 +  X2_1_11 +  X2_2_11 +  X2_3_11 +  X3_1_11 +  X3_2_11 +  X3_3_11 +  X4_1_11 +  X4_2_11 +  X4_3_11 +  X5_1_11 +  X5_2_11 +  X5_3_11 +  X6_1_11 +  X6_2_11 +  X6_3_11 +  X7_1_11 +  X7_2_11 +  X7_3_11 +  X8_1_11 +  X8_2_11 +  X8_3_11 +  X9_1_11 +  X9_2_11 +  X9_3_11 +  X10_1_11 +  X10_2_11 +  X10_3_11 +  X11_1_11 +  X11_2_11 +  X11_3_11; 
Y12 + Y12 + Y12>=  X0_1_12 +  X0_2_12 +  X0_3_12 +  X1_1_12 +  X1_2_12 +  X1_3_12 +  X2_1_12 +  X2_2_12 +  X2_3_12 +  X3_1_12 +  X3_2_12 +  X3_3_12 +  X4_1_12 +  X4_2_12 +  X4_3_12 +  X5_1_12 +  X5_2_12 +  X5_3_12 +  X6_1_12 +  X6_2_12 +  X6_3_12 +  X7_1_12 +  X7_2_12 +  X7_3_12 +  X8_1_12 +  X8_2_12 +  X8_3_12 +  X9_1_12 +  X9_2_12 +  X9_3_12 +  X10_1_12 +  X10_2_12 +  X10_3_12 +  X11_1_12 +  X11_2_12 +  X11_3_12; 
Y13 + Y13 + Y13>=  X0_1_13 +  X0_2_13 +  X0_3_13 +  X1_1_13 +  X1_2_13 +  X1_3_13 +  X2_1_13 +  X2_2_13 +  X2_3_13 +  X3_1_13 +  X3_2_13 +  X3_3_13 +  X4_1_13 +  X4_2_13 +  X4_3_13 +  X5_1_13 +  X5_2_13 +  X5_3_13 +  X6_1_13 +  X6_2_13 +  X6_3_13 +  X7_1_13 +  X7_2_13 +  X7_3_13 +  X8_1_13 +  X8_2_13 +  X8_3_13 +  X9_1_13 +  X9_2_13 +  X9_3_13 +  X10_1_13 +  X10_2_13 +  X10_3_13 +  X11_1_13 +  X11_2_13 +  X11_3_13; 
Y14>=  X0_1_14 +  X0_2_14 +  X0_3_14 +  X1_1_14 +  X1_2_14 +  X1_3_14 +  X2_1_14 +  X2_2_14 +  X2_3_14 +  X3_1_14 +  X3_2_14 +  X3_3_14 +  X4_1_14 +  X4_2_14 +  X4_3_14 +  X5_1_14 +  X5_2_14 +  X5_3_14 +  X6_1_14 +  X6_2_14 +  X6_3_14 +  X7_1_14 +  X7_2_14 +  X7_3_14 +  X8_1_14 +  X8_2_14 +  X8_3_14 +  X9_1_14 +  X9_2_14 +  X9_3_14 +  X10_1_14 +  X10_2_14 +  X10_3_14 +  X11_1_14 +  X11_2_14 +  X11_3_14; 
Y15 + Y15 + Y15>=  X0_1_15 +  X0_2_15 +  X0_3_15 +  X1_1_15 +  X1_2_15 +  X1_3_15 +  X2_1_15 +  X2_2_15 +  X2_3_15 +  X3_1_15 +  X3_2_15 +  X3_3_15 +  X4_1_15 +  X4_2_15 +  X4_3_15 +  X5_1_15 +  X5_2_15 +  X5_3_15 +  X6_1_15 +  X6_2_15 +  X6_3_15 +  X7_1_15 +  X7_2_15 +  X7_3_15 +  X8_1_15 +  X8_2_15 +  X8_3_15 +  X9_1_15 +  X9_2_15 +  X9_3_15 +  X10_1_15 +  X10_2_15 +  X10_3_15 +  X11_1_15 +  X11_2_15 +  X11_3_15; 
int Y7; 
int Y8; 
int Y9; 
int Y10; 
int Y11; 
int Y12; 
int Y13; 
int Y15; 
int X0_1_0; 
int X0_1_1; 
int X0_1_2; 
int X0_1_3; 
int X0_1_4; 
int X0_1_5; 
int X0_1_6; 
int X0_1_7; 
int X0_1_8; 
int X0_1_9; 
int X0_1_10; 
int X0_1_11; 
int X0_1_12; 
int X0_1_13; 
int X0_1_14; 
int X0_1_15; 
int X0_2_0; 
int X0_2_1; 
int X0_2_2; 
int X0_2_3; 
int X0_2_4; 
int X0_2_5; 
int X0_2_6; 
int X0_2_7; 
int X0_2_8; 
int X0_2_9; 
int X0_2_10; 
int X0_2_11; 
int X0_2_12; 
int X0_2_13; 
int X0_2_14; 
int X0_2_15; 
int X0_3_0; 
int X0_3_1; 
int X0_3_2; 
int X0_3_3; 
int X0_3_4; 
int X0_3_5; 
int X0_3_6; 
int X0_3_7; 
int X0_3_8; 
int X0_3_9; 
int X0_3_10; 
int X0_3_11; 
int X0_3_12; 
int X0_3_13; 
int X0_3_14; 
int X0_3_15; 
int X1_1_0; 
int X1_1_1; 
int X1_1_2; 
int X1_1_3; 
int X1_1_4; 
int X1_1_5; 
int X1_1_6; 
int X1_1_7; 
int X1_1_8; 
int X1_1_9; 
int X1_1_10; 
int X1_1_11; 
int X1_1_12; 
int X1_1_13; 
int X1_1_14; 
int X1_1_15; 
int X1_2_0; 
int X1_2_1; 
int X1_2_2; 
int X1_2_3; 
int X1_2_4; 
int X1_2_5; 
int X1_2_6; 
int X1_2_7; 
int X1_2_8; 
int X1_2_9; 
int X1_2_10; 
int X1_2_11; 
int X1_2_12; 
int X1_2_13; 
int X1_2_14; 
int X1_2_15; 
int X1_3_0; 
int X1_3_1; 
int X1_3_2; 
int X1_3_3; 
int X1_3_4; 
int X1_3_5; 
int X1_3_6; 
int X1_3_7; 
int X1_3_8; 
int X1_3_9; 
int X1_3_10; 
int X1_3_11; 
int X1_3_12; 
int X1_3_13; 
int X1_3_14; 
int X1_3_15; 
int X2_1_0; 
int X2_1_1; 
int X2_1_2; 
int X2_1_3; 
int X2_1_4; 
int X2_1_5; 
int X2_1_6; 
int X2_1_7; 
int X2_1_8; 
int X2_1_9; 
int X2_1_10; 
int X2_1_11; 
int X2_1_12; 
int X2_1_13; 
int X2_1_14; 
int X2_1_15; 
int X2_2_0; 
int X2_2_1; 
int X2_2_2; 
int X2_2_3; 
int X2_2_4; 
int X2_2_5; 
int X2_2_6; 
int X2_2_7; 
int X2_2_8; 
int X2_2_9; 
int X2_2_10; 
int X2_2_11; 
int X2_2_12; 
int X2_2_13; 
int X2_2_14; 
int X2_2_15; 
int X2_3_0; 
int X2_3_1; 
int X2_3_2; 
int X2_3_3; 
int X2_3_4; 
int X2_3_5; 
int X2_3_6; 
int X2_3_7; 
int X2_3_8; 
int X2_3_9; 
int X2_3_10; 
int X2_3_11; 
int X2_3_12; 
int X2_3_13; 
int X2_3_14; 
int X2_3_15; 
int X3_1_0; 
int X3_1_1; 
int X3_1_2; 
int X3_1_3; 
int X3_1_4; 
int X3_1_5; 
int X3_1_6; 
int X3_1_7; 
int X3_1_8; 
int X3_1_9; 
int X3_1_10; 
int X3_1_11; 
int X3_1_12; 
int X3_1_13; 
int X3_1_14; 
int X3_1_15; 
int X3_2_0; 
int X3_2_1; 
int X3_2_2; 
int X3_2_3; 
int X3_2_4; 
int X3_2_5; 
int X3_2_6; 
int X3_2_7; 
int X3_2_8; 
int X3_2_9; 
int X3_2_10; 
int X3_2_11; 
int X3_2_12; 
int X3_2_13; 
int X3_2_14; 
int X3_2_15; 
int X3_3_0; 
int X3_3_1; 
int X3_3_2; 
int X3_3_3; 
int X3_3_4; 
int X3_3_5; 
int X3_3_6; 
int X3_3_7; 
int X3_3_8; 
int X3_3_9; 
int X3_3_10; 
int X3_3_11; 
int X3_3_12; 
int X3_3_13; 
int X3_3_14; 
int X3_3_15; 
int X4_1_0; 
int X4_1_1; 
int X4_1_2; 
int X4_1_3; 
int X4_1_4; 
int X4_1_5; 
int X4_1_6; 
int X4_1_7; 
int X4_1_8; 
int X4_1_9; 
int X4_1_10; 
int X4_1_11; 
int X4_1_12; 
int X4_1_13; 
int X4_1_14; 
int X4_1_15; 
int X4_2_0; 
int X4_2_1; 
int X4_2_2; 
int X4_2_3; 
int X4_2_4; 
int X4_2_5; 
int X4_2_6; 
int X4_2_7; 
int X4_2_8; 
int X4_2_9; 
int X4_2_10; 
int X4_2_11; 
int X4_2_12; 
int X4_2_13; 
int X4_2_14; 
int X4_2_15; 
int X4_3_0; 
int X4_3_1; 
int X4_3_2; 
int X4_3_3; 
int X4_3_4; 
int X4_3_5; 
int X4_3_6; 
int X4_3_7; 
int X4_3_8; 
int X4_3_9; 
int X4_3_10; 
int X4_3_11; 
int X4_3_12; 
int X4_3_13; 
int X4_3_14; 
int X4_3_15; 
int X5_1_0; 
int X5_1_1; 
int X5_1_2; 
int X5_1_3; 
int X5_1_4; 
int X5_1_5; 
int X5_1_6; 
int X5_1_7; 
int X5_1_8; 
int X5_1_9; 
int X5_1_10; 
int X5_1_11; 
int X5_1_12; 
int X5_1_13; 
int X5_1_14; 
int X5_1_15; 
int X5_2_0; 
int X5_2_1; 
int X5_2_2; 
int X5_2_3; 
int X5_2_4; 
int X5_2_5; 
int X5_2_6; 
int X5_2_7; 
int X5_2_8; 
int X5_2_9; 
int X5_2_10; 
int X5_2_11; 
int X5_2_12; 
int X5_2_13; 
int X5_2_14; 
int X5_2_15; 
int X5_3_0; 
int X5_3_1; 
int X5_3_2; 
int X5_3_3; 
int X5_3_4; 
int X5_3_5; 
int X5_3_6; 
int X5_3_7; 
int X5_3_8; 
int X5_3_9; 
int X5_3_10; 
int X5_3_11; 
int X5_3_12; 
int X5_3_13; 
int X5_3_14; 
int X5_3_15; 
int X6_1_0; 
int X6_1_1; 
int X6_1_2; 
int X6_1_3; 
int X6_1_4; 
int X6_1_5; 
int X6_1_6; 
int X6_1_7; 
int X6_1_8; 
int X6_1_9; 
int X6_1_10; 
int X6_1_11; 
int X6_1_12; 
int X6_1_13; 
int X6_1_14; 
int X6_1_15; 
int X6_2_0; 
int X6_2_1; 
int X6_2_2; 
int X6_2_3; 
int X6_2_4; 
int X6_2_5; 
int X6_2_6; 
int X6_2_7; 
int X6_2_8; 
int X6_2_9; 
int X6_2_10; 
int X6_2_11; 
int X6_2_12; 
int X6_2_13; 
int X6_2_14; 
int X6_2_15; 
int X6_3_0; 
int X6_3_1; 
int X6_3_2; 
int X6_3_3; 
int X6_3_4; 
int X6_3_5; 
int X6_3_6; 
int X6_3_7; 
int X6_3_8; 
int X6_3_9; 
int X6_3_10; 
int X6_3_11; 
int X6_3_12; 
int X6_3_13; 
int X6_3_14; 
int X6_3_15; 
int X7_1_0; 
int X7_1_1; 
int X7_1_2; 
int X7_1_3; 
int X7_1_4; 
int X7_1_5; 
int X7_1_6; 
int X7_1_7; 
int X7_1_8; 
int X7_1_9; 
int X7_1_10; 
int X7_1_11; 
int X7_1_12; 
int X7_1_13; 
int X7_1_14; 
int X7_1_15; 
int X7_2_0; 
int X7_2_1; 
int X7_2_2; 
int X7_2_3; 
int X7_2_4; 
int X7_2_5; 
int X7_2_6; 
int X7_2_7; 
int X7_2_8; 
int X7_2_9; 
int X7_2_10; 
int X7_2_11; 
int X7_2_12; 
int X7_2_13; 
int X7_2_14; 
int X7_2_15; 
int X7_3_0; 
int X7_3_1; 
int X7_3_2; 
int X7_3_3; 
int X7_3_4; 
int X7_3_5; 
int X7_3_6; 
int X7_3_7; 
int X7_3_8; 
int X7_3_9; 
int X7_3_10; 
int X7_3_11; 
int X7_3_12; 
int X7_3_13; 
int X7_3_14; 
int X7_3_15; 
int X8_1_0; 
int X8_1_1; 
int X8_1_2; 
int X8_1_3; 
int X8_1_4; 
int X8_1_5; 
int X8_1_6; 
int X8_1_7; 
int X8_1_8; 
int X8_1_9; 
int X8_1_10; 
int X8_1_11; 
int X8_1_12; 
int X8_1_13; 
int X8_1_14; 
int X8_1_15; 
int X8_2_0; 
int X8_2_1; 
int X8_2_2; 
int X8_2_3; 
int X8_2_4; 
int X8_2_5; 
int X8_2_6; 
int X8_2_7; 
int X8_2_8; 
int X8_2_9; 
int X8_2_10; 
int X8_2_11; 
int X8_2_12; 
int X8_2_13; 
int X8_2_14; 
int X8_2_15; 
int X8_3_0; 
int X8_3_1; 
int X8_3_2; 
int X8_3_3; 
int X8_3_4; 
int X8_3_5; 
int X8_3_6; 
int X8_3_7; 
int X8_3_8; 
int X8_3_9; 
int X8_3_10; 
int X8_3_11; 
int X8_3_12; 
int X8_3_13; 
int X8_3_14; 
int X8_3_15; 
int X9_1_0; 
int X9_1_1; 
int X9_1_2; 
int X9_1_3; 
int X9_1_4; 
int X9_1_5; 
int X9_1_6; 
int X9_1_7; 
int X9_1_8; 
int X9_1_9; 
int X9_1_10; 
int X9_1_11; 
int X9_1_12; 
int X9_1_13; 
int X9_1_14; 
int X9_1_15; 
int X9_2_0; 
int X9_2_1; 
int X9_2_2; 
int X9_2_3; 
int X9_2_4; 
int X9_2_5; 
int X9_2_6; 
int X9_2_7; 
int X9_2_8; 
int X9_2_9; 
int X9_2_10; 
int X9_2_11; 
int X9_2_12; 
int X9_2_13; 
int X9_2_14; 
int X9_2_15; 
int X9_3_0; 
int X9_3_1; 
int X9_3_2; 
int X9_3_3; 
int X9_3_4; 
int X9_3_5; 
int X9_3_6; 
int X9_3_7; 
int X9_3_8; 
int X9_3_9; 
int X9_3_10; 
int X9_3_11; 
int X9_3_12; 
int X9_3_13; 
int X9_3_14; 
int X9_3_15; 
int X10_1_0; 
int X10_1_1; 
int X10_1_2; 
int X10_1_3; 
int X10_1_4; 
int X10_1_5; 
int X10_1_6; 
int X10_1_7; 
int X10_1_8; 
int X10_1_9; 
int X10_1_10; 
int X10_1_11; 
int X10_1_12; 
int X10_1_13; 
int X10_1_14; 
int X10_1_15; 
int X10_2_0; 
int X10_2_1; 
int X10_2_2; 
int X10_2_3; 
int X10_2_4; 
int X10_2_5; 
int X10_2_6; 
int X10_2_7; 
int X10_2_8; 
int X10_2_9; 
int X10_2_10; 
int X10_2_11; 
int X10_2_12; 
int X10_2_13; 
int X10_2_14; 
int X10_2_15; 
int X10_3_0; 
int X10_3_1; 
int X10_3_2; 
int X10_3_3; 
int X10_3_4; 
int X10_3_5; 
int X10_3_6; 
int X10_3_7; 
int X10_3_8; 
int X10_3_9; 
int X10_3_10; 
int X10_3_11; 
int X10_3_12; 
int X10_3_13; 
int X10_3_14; 
int X10_3_15; 
int X11_1_0; 
int X11_1_1; 
int X11_1_2; 
int X11_1_3; 
int X11_1_4; 
int X11_1_5; 
int X11_1_6; 
int X11_1_7; 
int X11_1_8; 
int X11_1_9; 
int X11_1_10; 
int X11_1_11; 
int X11_1_12; 
int X11_1_13; 
int X11_1_14; 
int X11_1_15; 
int X11_2_0; 
int X11_2_1; 
int X11_2_2; 
int X11_2_3; 
int X11_2_4; 
int X11_2_5; 
int X11_2_6; 
int X11_2_7; 
int X11_2_8; 
int X11_2_9; 
int X11_2_10; 
int X11_2_11; 
int X11_2_12; 
int X11_2_13; 
int X11_2_14; 
int X11_2_15; 
int X11_3_0; 
int X11_3_1; 
int X11_3_2; 
int X11_3_3; 
int X11_3_4; 
int X11_3_5; 
int X11_3_6; 
int X11_3_7; 
int X11_3_8; 
int X11_3_9; 
int X11_3_10; 
int X11_3_11; 
int X11_3_12; 
int X11_3_13; 
int X11_3_14; 
int X11_3_15; 
